
Gurobi 9.5.0 (win64) logging started Tue Jun  7 15:31:09 2022

Set parameter LogFile to value "C:\Users\kmajd1\Documents\NNRepLayer_v2\demos\examples\tc7_walking_example\repair_inp_out_constraint\repair_net/logs/opt_log_6_7_2022_15_30_45.log"
Gurobi Optimizer version 9.5.0 build v9.5.0rc5 (win64)
Thread count: 8 physical cores, 16 logical processors, using up to 16 threads
Optimize a model with 339 rows, 125 columns and 882 nonzeros
Model fingerprint: 0xc72f2833
Model has 92 quadratic objective terms
Coefficient statistics:
  Matrix range     [7e-03, 3e+01]
  Objective range  [2e-03, 4e-01]
  QObjective range [2e-02, 2e+00]
  Bounds range     [1e+01, 4e+01]
  RHS range        [1e-03, 2e+01]
Presolve removed 214 rows and 19 columns
Presolve time: 0.01s
Presolved: 125 rows, 106 columns, 664 nonzeros
Presolved model has 92 quadratic objective terms
Ordering time: 0.00s

Barrier statistics:
 AA' NZ     : 6.248e+03
 Factor NZ  : 7.059e+03
 Factor Ops : 5.097e+05 (less than 1 second per iteration)
 Threads    : 1

                  Objective                Residual
Iter       Primal          Dual         Primal    Dual     Compl     Time
   0   1.62487173e+07 -1.63620090e+07  2.49e+03 4.29e+02  9.13e+05     0s
   1   4.74495560e+06 -4.96016383e+06  1.28e+03 2.20e+02  4.76e+05     0s
   2   3.67720745e+04 -6.85548199e+05  1.19e+02 2.04e+01  6.09e+04     0s
   3   9.96193345e+00 -4.51820474e+05  9.56e-01 1.64e-01  2.23e+03     0s
   4   1.40816427e+01 -1.78964425e+05  1.85e-01 3.18e-02  7.76e+02     0s
   5   1.50146208e+01 -5.33555773e+03  1.31e-03 2.24e-04  2.13e+01     0s
   6   1.38616739e+01 -2.18133933e+01  2.80e-06 4.80e-07  1.42e-01     0s
   7   4.94969264e+00 -1.77229701e+00  3.20e-11 4.81e-13  2.67e-02     0s
   8   3.52473374e+00  2.92751298e+00  6.21e-11 2.72e-15  2.37e-03     0s
   9   3.40487451e+00  3.17681095e+00  3.11e-10 1.05e-15  9.05e-04     0s
  10   3.38449447e+00  3.34162089e+00  2.14e-09 3.64e-16  1.70e-04     0s
  11   3.37801066e+00  3.37365143e+00  2.99e-10 2.40e-16  1.73e-05     0s
  12   3.37740837e+00  3.37693010e+00  4.61e-09 4.55e-16  1.90e-06     0s
  13   3.37735118e+00  3.37735069e+00  2.17e-10 7.21e-16  1.94e-09     0s

Barrier solved model in 13 iterations and 0.04 seconds (0.00 work units)
Optimal objective 3.37735118e+00

